186677379522
186629825680
186699323979
186630658401
186657032212
186677379522
186657864983
186678842352
186629825680
186654502605
163082760942
163259957640
163082796247
163082039925
163082039925
163082039925
163082039925
163082039925
163082039925
163082796247
